Problem:    92
Rows:       14
Columns:    30 (30 integer, 30 binary)
Non-zeros:  90
Status:     INTEGER OPTIMAL
Objective:  z = 10 (MAXimum)

   No.   Row name        Activity     Lower bound   Upper bound
------ ------------    ------------- ------------- -------------
     1 operaz[1]                   1                           1 
     2 operaz[2]                   1                           1 
     3 operaz[3]                   1                           1 
     4 operaz[4]                   1                           1 
     5 operaz[5]                   1                           1 
     6 operaz[6]                   1                           1 
     7 operaz[7]                   1                           1 
     8 operaz[8]                   1                           1 
     9 operaz[9]                   1                           1 
    10 operaz[10]                  1                           1 
    11 minutiTotali[1]
                                 360                         360 
    12 minutiTotali[2]
                                 360                         360 
    13 minutiTotali[3]
                                 415                         420 
    14 z                          10                             

   No. Column name       Activity     Lower bound   Upper bound
------ ------------    ------------- ------------- -------------
     1 x[1,1]       *              1             0             1 
     2 x[1,2]       *              0             0             1 
     3 x[1,3]       *              0             0             1 
     4 x[2,1]       *              1             0             1 
     5 x[2,2]       *              0             0             1 
     6 x[2,3]       *              0             0             1 
     7 x[3,1]       *              0             0             1 
     8 x[3,2]       *              0             0             1 
     9 x[3,3]       *              1             0             1 
    10 x[4,1]       *              0             0             1 
    11 x[4,2]       *              1             0             1 
    12 x[4,3]       *              0             0             1 
    13 x[5,1]       *              0             0             1 
    14 x[5,2]       *              1             0             1 
    15 x[5,3]       *              0             0             1 
    16 x[6,1]       *              0             0             1 
    17 x[6,2]       *              0             0             1 
    18 x[6,3]       *              1             0             1 
    19 x[7,1]       *              0             0             1 
    20 x[7,2]       *              0             0             1 
    21 x[7,3]       *              1             0             1 
    22 x[8,1]       *              0             0             1 
    23 x[8,2]       *              1             0             1 
    24 x[8,3]       *              0             0             1 
    25 x[9,1]       *              0             0             1 
    26 x[9,2]       *              0             0             1 
    27 x[9,3]       *              1             0             1 
    28 x[10,1]      *              1             0             1 
    29 x[10,2]      *              0             0             1 
    30 x[10,3]      *              0             0             1 

Integer feasibility conditions:

KKT.PE: max.abs.err = 0.00e+000 on row 0
        max.rel.err = 0.00e+000 on row 0
        High quality

KKT.PB: max.abs.err = 0.00e+000 on row 0
        max.rel.err = 0.00e+000 on row 0
        High quality

End of output
